77      4       
10      10      10      10      
0       0       0       0       0       6       2       3       4       6       7       8       
3       0       0       0       0       4       5       11      13      14      
9       0       0       1       0       5       10      11      14      16      22      
7       1       0       2       0       5       10      11      14      16      22      
6       3       3       0       0       4       9       12      16      19      
9       3       0       0       1       6       14      15      16      19      20      22      
3       0       0       1       3       4       10      14      21      22      
1       2       0       0       4       4       15      16      18      20      
6       0       0       5       4       8       20      21      22      23      24      25      29      32      
9       1       3       0       0       7       19      20      24      25      29      30      32      
6       3       0       4       0       6       17      19      20      21      25      32      
1       4       0       3       0       5       20      23      29      30      32      
2       3       0       0       1       8       23      28      29      30      31      32      33      34      
3       0       4       0       2       7       23      25      28      29      30      31      33      
5       3       0       0       4       6       23      24      28      29      30      33      
5       5       1       0       0       6       25      28      29      30      32      37      
3       0       2       0       2       5       23      28      30      31      34      
1       2       0       0       5       5       24      25      28      30      37      
4       0       0       1       1       2       23      34      
2       0       0       2       3       8       28      31      33      34      36      38      40      41      
1       0       1       5       0       8       27      34      35      36      37      38      40      47      
9       0       2       0       2       5       26      30      33      41      44      
5       0       1       5       0       4       26      27      37      44      
2       3       0       0       2       7       27      31      34      35      36      40      47      
3       0       0       2       3       6       27      34      35      36      38      47      
9       1       0       0       4       5       35      36      38      40      47      
10      0       0       1       3       8       41      42      45      46      48      51      54      56      
5       5       4       0       0       6       39      44      46      47      48      56      
4       3       1       0       0       5       39      40      41      46      47      
2       1       0       0       3       8       42      45      46      47      48      49      51      56      
8       0       0       2       3       5       39      42      44      48      56      
3       0       2       0       3       5       39      41      42      46      48      
3       3       0       3       0       2       35      46      
8       0       1       2       0       6       43      44      46      54      55      56      
10      0       4       0       2       3       39      48      56      
8       3       3       0       0       3       39      48      56      
2       2       0       3       0       3       39      46      56      
9       0       1       0       1       5       42      46      51      54      56      
8       0       2       0       1       5       43      49      51      54      55      
5       0       0       3       4       7       49      50      51      52      54      55      56      
6       0       1       0       1       3       43      49      55      
6       2       0       3       0       2       43      55      
9       0       0       0       2       4       50      52      53      57      
1       2       0       2       0       4       49      51      52      53      
1       0       3       1       0       4       50      55      61      65      
8       0       0       4       1       4       52      57      58      76      
7       2       5       0       0       6       58      59      60      61      65      76      
8       0       0       1       3       3       52      57      60      
8       0       0       1       3       4       57      58      61      65      
10      0       2       0       0       7       59      60      62      63      64      75      76      
5       0       2       2       0       4       57      74      75      76      
5       0       0       2       2       7       59      61      62      65      70      74      75      
3       0       3       0       0       4       58      59      63      74      
9       0       0       3       5       4       58      59      63      76      
1       0       5       0       0       2       57      58      
1       0       0       3       2       6       59      62      65      66      70      75      
1       0       3       0       0       5       59      62      63      64      70      
6       0       1       4       0       9       62      64      66      68      70      71      72      73      75      
6       0       6       0       0       5       68      69      71      72      73      
3       0       2       2       0       4       66      68      70      74      
10      0       0       2       1       2       63      67      
5       0       0       2       4       1       67      
1       0       1       0       1       1       66      
10      0       3       0       2       1       69      
8       0       2       0       1       1       67      
5       0       2       0       2       1       77      
8       0       6       3       0       1       77      
4       0       0       2       0       1       77      
7       0       2       5       0       1       77      
2       0       2       2       0       1       77      
5       0       3       3       0       1       77      
4       0       3       0       4       1       77      
1       0       0       1       2       1       77      
6       0       0       2       0       1       77      
2       0       1       0       0       1       77      
5       0       0       4       0       1       77      
0       0       0       0       0       0       
